c --- [ banner ] -------------------------------------------------------------
c 
c CaDiCaL Radically Simplified CDCL SAT Solver
c Copyright (c) 2016-2021 A. Biere, M. Fleury, N. Froleyks
c 
c Version 1.5.2 9c38a080b32c28d805e8e6ca21849856b0cda605
c g++ (Ubuntu 7.5.0-3ubuntu1~18.04) 7.5.0 -Wall -Wextra -O3 -DNDEBUG
c Wed Feb 16 23:15:36 EST 2022 Linux fac-vanhoeve01 5.4.0-99-generic x86_64
c 
c --- [ limit ] --------------------------------------------------------------
c 
c setting time limit to 600 seconds real time (due to '-t 600')
c setting conflict limit to 1000000000 conflicts (due to '1000000000')
c 
c --- [ parsing input ] ------------------------------------------------------
c 
c reading DIMACS file from 'ddfwcnfs/wap02a.col_40.cnf'
c opening file to read 'ddfwcnfs/wap02a.col_40.cnf'
c found 'p cnf 98560 4253384' header
c parsed 4253384 clauses in 2.39 seconds process time
c closing file 'ddfwcnfs/wap02a.col_40.cnf'
c after reading 68126656 bytes 65.0 MB
c 
c --- [ options ] ------------------------------------------------------------
c 
c all options are set to their default value
c 
c --- [ solving ] ------------------------------------------------------------
c 
c time measured in process time since initialization
c 
c  seconds   reductions  redundant   irredundant
c          MB    restarts       trail        variables
c           level   conflicts       glue          remaining
c 
c *  2.39 376  0 0   0    0    0  0% 0 4251784 96960 98%
c {  2.42 378  0 0   0    0    0  0% 0 4251784 96960 98%
c -  3.14 378 39 1   0  300  148  4% 36 4251784 96960 98%
c }  3.25 378 40 1   0 1000  634  4% 36 4251784 96960 98%
c [  3.25 378  0 1   0 1000  634  0% 0 4251784 96960 98%
c O  3.25 378 50 1   0 1002  636  4% 28 4251784 96960 98%
c -  5.19 476 48 2   0 1883 1096  4% 35 4251784 96960 98%
c ]  5.27 476 45 2   1 3003 1817  4% 37 4251784 96960 98%
c {  5.27 476 40 2   1 3003 1817  4% 36 4251784 96960 98%
c F  5.27 476 40 2   1 3004 1818  4% 36 4251784 96960 98%
c -  6.66 476 53 3   1 4248 1876  5% 31 4251784 96960 98%
c #  9.87 472 50 3   1 6007 3241  5% 30 4251784 96960 98%
c }  9.95 472 49 3   3 7005 3966  6% 30 4251784 96960 98%
c [  9.95 472 45 3   3 7005 3966  4% 37 4251784 96960 98%
c - 11.30 472 44 4   4 7404 2930  4% 36 4251784 96960 98%
c I 11.51 472 42 4   5 10008 4701  4% 36 4251784 96960 98%
c s 12.98 488 822 4   6 10911 5337  6% 38 4251784 96960 98%
c e 21.76 488 822 4   6 10911 2842  6% 38 3774349 90415 92%
c s 23.33 505 822 4   6 10911 2831  6% 38 3774349 90415 92%
c ^ 24.08 505 822 4   6 10911 2831  6% 38 3774349 90415 92%
c 
c  seconds     reductions   redundant    irredundant
c          MB      restarts        trail         variables
c            level     conflicts       glue           remaining
c 
c - 25.66 515 1377 5   7 11346 1638  7% 39 3774349 90415 92%
c ] 29.29 544 8568 5   8 15006 4380 22% 47 3774349 90415 92%
c { 29.29 544 49 5   8 15006 4380  6% 30 3774349 90415 92%
c B 29.31 544 50 5   8 15010 4384  6% 30 3774349 90415 92%
c - 30.63 545 67 6 260 15985 3910  6% 31 3774349 90415 92%
c W 32.33 545 75 6 1307 21011 7719  6% 34 3774349 90415 92%
c - 33.69 545 81 7 1349 21397 5222  6% 35 3774349 90415 92%
c - 35.41 545 71 8 1361 27582 6286  6% 35 3774349 90415 92%
c F 35.46 545 71 8 1361 28013 6600  6% 35 3774349 90415 92%
c } 38.90 545 65 8 1361 31007 8628  6% 34 3774349 90415 92%
c [ 38.90 545 8568 8 1361 31007 8628 22% 47 3774349 90415 92%
c s 39.26 545 7448 8 1361 32446 9523 20% 46 3774349 90415 92%
c w 41.98 545 7448 8 1361 32446 9513 20% 46 3774349 90415 92%
c s 46.34 545 7448 8 1361 32446 9267 20% 46 3774349 90415 92%
c ^ 47.03 545 7448 8 1361 32446 9267 20% 46 3774349 90415 92%
c - 48.52 545 6238 9 1363 34541 7738 18% 45 3774349 90415 92%
c B 48.63 545 5590 9 1364 36014 8583 16% 44 3774349 90415 92%
c - 51.05 547 8294 10 1368 42271 8203 26% 64 3774349 90415 92%
c W 52.75 547 7286 10 1368 45016 10161 25% 68 3774349 90415 92%
c - 57.79 547 5777 11 1369 50774 8599 21% 68 3774349 90415 92%
c 
c  seconds     reductions      redundant    irredundant
c          MB       restarts          trail         variables
c            level       conflicts        glue           remaining
c 
c O 58.44 547 6109 11 1370 55021 11951 23% 72 3774349 90415 92%
c - 60.03 547 5190 12 1374 60050 9029 20% 67 3774349 90415 92%
c ] 60.23 547 4755 12 1376 63008 10900 19% 65 3774349 90415 92%
c { 60.23 547 65 12 1376 63008 10900  6% 34 3774349 90415 92%
c s 60.54 547 67 12 1376 64748 12075  6% 33 3774349 90415 92%
c w 63.23 547 67 12 1376 64748 12074  6% 33 3774349 90415 92%
c s 67.62 547 67 12 1376 64748 12052  6% 33 3774349 90415 92%
c ^ 68.31 547 67 12 1376 64748 12052  6% 33 3774349 90415 92%
c B 68.42 547 65 12 1376 66022 12842  6% 33 3774349 90415 92%
c - 70.24 545 64 13 1511 70100 8212  6% 33 3774349 90415 92%
c W 75.98 545 61 13 1668 78028 12635  6% 34 3774349 90415 92%
c - 77.53 545 61 14 1722 80922 8438  6% 34 3774349 90415 92%
c # 78.63 545 60 14 2068 91030 15455  6% 34 3774349 90415 92%
c - 80.05 546 60 15 2078 92517 10314  6% 34 3774349 90415 92%
c - 82.47 546 54 16 2100 104885 10209  6% 34 3774349 90415 92%
c B 85.53 546 54 16 2100 105034 10300  6% 34 3774349 90415 92%
c s 86.28 546 58 16 2766 107819 11400  7% 35 3774349 90415 92%
c w 88.99 546 58 16 2766 107819 11391  7% 35 3774349 90415 92%
c s 93.43 546 58 16 2766 107819 11181  7% 35 3774349 90415 92%
c ^ 94.12 546 58 16 2766 107819 11181  7% 35 3774349 90415 92%
c 
c  seconds   reductions       redundant    irredundant
c          MB     restarts           trail         variables
c           level      conflicts         glue           remaining
c 
c - 96.69 547 78 17 5175 118027 12028  7% 39 3774349 90415 92%
c W 99.30 547 76 17 5175 120037 13291  7% 39 3774349 90415 92%
c } 99.85 547 72 17 5175 127010 18092  7% 39 3774349 90415 92%
c [ 99.85 547 4755 17 5175 127010 18092 19% 65 3774349 90415 92%
c - 101.60 546 4198 18 5177 131941 12565 18% 63 3774349 90415 92%
c B 101.96 546 3781 18 5180 136039 14885 17% 60 3774349 90415 92%
c - 108.45 550 6575 19 5183 146630 14674 25% 78 3774349 90415 92%
c W 112.12 550 6698 19 5184 153043 19939 28% 86 3774349 90415 92%
c s 113.30 550 6223 19 5184 161655 26231 29% 83 3774349 90415 92%
c w 116.09 550 6223 19 5184 161655 26230 29% 83 3774349 90415 92%
c s 120.66 550 6223 19 5184 161655 26227 29% 83 3774349 90415 92%
c ^ 121.38 550 6223 19 5184 161655 26227 29% 83 3774349 90415 92%
c - 122.80 551 6175 20 5184 162091 16108 29% 83 3774349 90415 92%
c I 123.89 551 5383 20 5187 171044 22935 26% 81 3774349 90415 92%
c - 126.20 550 5318 21 5191 178325 16941 26% 85 3774349 90415 92%
c B 131.92 550 5054 21 5198 190045 26651 26% 89 3774349 90415 92%
c - 133.95 552 4681 22 5199 195333 18830 25% 87 3774349 90415 92%
c W 138.46 552 3813 22 5206 210046 29362 22% 80 3774349 90415 92%
c - 140.02 548 3657 23 5206 213115 17814 22% 79 3774349 90415 92%
c s 145.08 548 3296 23 5214 226258 27074 20% 74 3774349 90415 92%
c 
c  seconds      reductions       redundant    irredundant
c           MB       restarts           trail         variables
c             level       conflicts         glue           remaining
c 
c w 147.86 548 3296 23 5214 226258 27074 20% 74 3774349 90415 92%
c s 152.60 548 3296 23 5214 226258 26753 20% 74 3774349 90415 92%
c O 154.10 548 3111 23 5214 231048 30117 20% 74 3774349 90415 92%
c - 155.55 549 3087 24 5214 231668 18800 20% 74 3774349 90415 92%
c - 158.85 549 2437 25 5216 250995 19084 18% 71 3774349 90415 92%
c B 159.12 549 2378 25 5216 253052 20603 17% 71 3774349 90415 92%
c ] 159.67 549 3019 25 5216 255012 22280 18% 75 3774349 90415 92%
c { 159.67 549 72 25 5216 255012 22280  7% 39 3774349 90415 92%
c - 162.22 549 65 26 5237 271097 19862  7% 38 3774349 90415 92%
c F 165.91 549 63 26 5237 276057 23245  7% 38 3774349 90415 92%
c - 168.56 548 62 27 5237 291972 22776  6% 36 3774349 90415 92%
c B 169.38 548 61 27 5237 300059 29704  6% 35 3774349 90415 92%
c - 171.95 549 61 28 5508 313618 24429  6% 36 3774349 90415 92%
c W 177.20 549 60 28 5852 325060 33527  6% 36 3774349 90415 92%
c - 183.30 549 60 29 6153 336036 23282  6% 36 3774349 90415 92%
c # 184.59 549 57 29 6280 351062 31588  6% 36 3774349 90415 92%
c - 186.59 548 55 30 6282 359227 20575  6% 36 3774349 90415 92%
c B 188.41 548 52 30 6365 378065 33000  6% 36 3774349 90415 92%
c - 190.24 548 52 31 6750 383192 20773  6% 36 3774349 90415 92%
c W 201.57 548 60 31 7204 406067 33996  6% 37 3774349 90415 92%
c 
c  seconds    reductions       redundant    irredundant
c           MB     restarts           trail         variables
c            level      conflicts         glue           remaining
c 
c - 203.03 548 61 32 7217 407929 19604  6% 37 3774349 90415 92%
c - 206.89 548 68 33 7475 433440 20166  6% 37 3774349 90415 92%
c F 207.07 548 68 33 7479 435068 21017  6% 37 3774349 90415 92%
c - 214.05 548 62 34 7590 459729 21158  7% 38 3774349 90415 92%
c B 214.59 548 61 34 7616 465071 24346  7% 38 3774349 90415 92%
c - 218.49 548 64 35 13121 486785 16254  7% 43 3774349 90415 92%
c W 225.54 548 64 35 15453 496072 19049  7% 44 3774349 90415 92%
c } 227.27 548 83 35 15472 511012 30474  7% 44 3774349 90415 92%
c [ 227.27 548 3019 35 15472 511012 30474 18% 75 3774349 90415 92%
c - 229.42 550 3196 36 15472 514618 21384 19% 77 3774349 90415 92%
c W 241.57 550 3631 36 15472 528077 31004 21% 80 3774349 90415 92%
c - 245.01 555 3075 37 15475 543221 27075 19% 80 3774349 90415 92%
c I 247.60 555 2536 37 15486 561078 40318 17% 79 3774349 90415 92%
c - 251.23 559 5994 38 15488 572596 29461 21% 99 3774349 90415 92%
c B 254.77 559 5683 38 15501 595087 46622 21% 99 3774349 90415 92%
c - 260.95 556 5751 39 15502 602745 30607 22% 97 3774349 90415 92%
c W 273.02 556 4389 39 15509 630088 53164 21% 93 3774349 90415 92%
c - 275.09 557 4498 40 15510 633667 33704 22% 93 3774349 90415 92%
c s 275.47 557 4498 40 15510 633667 33592 22% 93 3774349 90415 92%
c w 278.60 557 4498 40 15510 633667 33579 22% 93 3774349 90415 92%
c 
c  seconds      reductions        redundant    irredundant
c           MB        restarts           trail         variables
c             level        conflicts         glue           remaining
c 
c - 284.58 555 4247 41 15525 665363 36262 23% 86 3774349 90415 92%
c O 284.64 555 4216 41 15525 666089 36757 23% 86 3774349 90415 92%
c - 292.12 550 3055 42 15534 697831 32563 18% 72 3774349 90415 92%
c B 292.67 550 2898 42 15534 703093 36261 17% 70 3774349 90415 92%
c - 297.06 555 3373 43 15535 731072 31919 24% 69 3774349 90415 92%
c W 306.48 555 3806 43 15536 741095 39154 26% 70 3774349 90415 92%
c - 314.84 560 5753 44 15536 765087 35486 29% 85 3774349 90415 92%
c I 316.82 560 4981 44 15536 780096 46456 26% 90 3774349 90415 92%
c - 320.22 562 8127 45 15536 799874 33002 28% 113 3774349 90415 92%
c B 323.93 562 9211 45 15546 820099 48564 31% 119 3774349 90415 92%
c - 327.67 562 7949 46 15551 835437 36664 29% 115 3774349 90415 92%
c W 342.20 562 6362 46 15565 861100 54215 25% 100 3774349 90415 92%
c - 345.83 557 6008 47 15567 871770 36716 24% 106 3774349 90415 92%
c O 349.99 557 5625 47 15577 903102 60343 24% 98 3774349 90415 92%
c - 351.87 555 5313 48 15581 908877 36907 23% 95 3774349 90415 92%
c B 356.32 555 3686 48 15597 946105 64139 17% 77 3774349 90415 92%
c - 358.52 553 3900 49 15597 946756 37610 18% 81 3774349 90415 92%
c - 387.24 585 3836 50 15599 985410 44711 24% 119 3774349 90415 92%
c W 401.45 585 3686 50 15599 990107 48984 24% 120 3774349 90415 92%
c ] 408.61 585 3630 50 15612 1023014 74683 25% 110 3774349 90415 92%
c 
c  seconds    reductions         redundant    irredundant
c           MB      restarts            trail         variables
c            level        conflicts         glue           remaining
c 
c { 408.61 585 83 50 15612 1023014 74683  7% 44 3774349 90415 92%
c - 410.28 560 83 51 15615 1024836 42905  7% 44 3774349 90415 92%
c # 411.56 560 79 51 15642 1035108 49903  7% 44 3774349 90415 92%
c - 421.08 552 70 52 15668 1065034 39277  6% 43 3774349 90415 92%
c s 421.45 552 70 52 15668 1065034 38834  6% 43 3774349 90415 92%
c w 425.20 552 70 52 15668 1065034 38820  6% 43 3774349 90415 92%
c B 427.65 552 66 52 15724 1081110 49173  6% 42 3774349 90415 92%
c - 432.72 554 115 53 20372 1106005 42364  6% 44 3774349 90415 92%
c W 448.63 554 147 53 23837 1128112 59861  6% 46 3774349 90415 92%
c - 453.21 556 170 54 26505 1147749 45279  6% 47 3774349 90415 92%
c F 461.59 556 195 54 27788 1176114 68271  7% 47 3774349 90415 92%
c - 464.99 555 175 55 27792 1190266 46149  7% 46 3774349 90415 92%
c B 471.28 555 137 55 27792 1225120 75184  7% 44 3774349 90415 92%
c - 473.66 554 134 56 27850 1233557 47391  7% 44 3774349 90415 92%
c W 497.77 554 103 56 27853 1275121 76204  7% 43 3774349 90415 92%
c - 499.41 552 102 57 27853 1277622 42821  7% 43 3774349 90415 92%
c - 506.52 553 81 58 27860 1322459 44969  7% 42 3774349 90415 92%
c # 506.99 553 79 58 27910 1326124 47547  7% 42 3774349 90415 92%
c - 514.00 554 67 59 27913 1368069 49042  7% 41 3774349 90415 92%
c B 515.32 554 65 59 27918 1378125 57593  7% 41 3774349 90415 92%
c 
c  seconds    reductions         redundant    irredundant
c           MB      restarts            trail         variables
c            level        conflicts         glue           remaining
c 
c - 524.60 554 68 60 28625 1414453 48667  7% 41 3774349 90415 92%
c W 541.89 554 64 60 28675 1431126 59218  7% 40 3774349 90415 92%
c - 546.95 552 58 61 28727 1461610 42797  7% 40 3774349 90415 92%
c F 549.96 552 54 61 28817 1485128 57557  7% 40 3774349 90415 92%
c - 557.69 553 54 62 28824 1509539 46215  7% 39 3774349 90415 92%
c B 562.31 553 50 62 28834 1540130 67785  6% 38 3774349 90415 92%
c - 565.95 552 50 63 28994 1558243 45132  7% 38 3774349 90415 92%
c s 566.38 552 50 63 28994 1558243 43525  7% 38 3774349 90415 92%
c W 592.09 552 47 63 29169 1596131 67063  7% 38 3774349 90415 92%
c - 595.22 552 47 64 29200 1607719 43584  7% 38 3774349 90415 92%
c } 599.92 552 46 64 29239 1625024 54623  7% 38 3774349 90415 92%
c ? 599.92 552 46 64 29239 1625024 54623  7% 38 3774349 90415 92%
c 
c --- [ result ] -------------------------------------------------------------
c 
c UNKNOWN
c 
c --- [ run-time profiling ] -------------------------------------------------
c 
c process time taken by individual solving procedures
c (percentage relative to process time for solving)
c 
c       458.31   76.70% search
c       165.22   27.65% unstable
c       162.81   27.25% stable
c       139.22   23.30% simplify
c       130.24   21.80% walk
c        35.51    5.94% ternary
c        26.81    4.49% elim
c        20.40    3.41% vivify
c        15.18    2.54% probe
c         5.39    0.90% subsume
c         2.39    0.40% parse
c         0.03    0.01% lucky
c   =================================
c       597.53   99.60% solve
c 
c last line shows process time for solving
c (percentage relative to total process time)
c 
c --- [ statistics ] ---------------------------------------------------------
c 
c chronological:            272725        16.78 %  of conflicts
c conflicts:               1625024      2719.57    per second
c decisions:               4672777      7820.17    per second
c eliminated:                 6545         6.64 %  of all variables
c fixed:                      1600         1.62 %  of all variables
c learned:                 1608836        99.00 %  per conflict
c learned_lits:          217736175       100.00 %  learned literals
c minimized:                     0         0.00 %  learned literals
c shrunken:               86822770        39.88 %  learned literals
c minishrunken:            6308225         2.90 %  learned literals
c propagations:          508101830         0.85 M  per second
c reduced:                 1109217        68.26 %  per conflict
c rephased:                     56     29018.29    interval
c restarts:                  29239        55.58    interval
c stabilizing:                   5        41.97 %  of conflicts
c subsumed:                 442444         3.71 %  of all clauses
c strengthened:              16056         0.13 %  of all clauses
c vivified:                     76         0.00 %  of all clauses
c walked:                       18     90279.11    interval
c weakened:                 576952         3.04    average size
c 
c seconds are measured in process time for solving
c 
c --- [ resources ] ----------------------------------------------------------
c 
c total process time since initialization:       599.92    seconds
c total real time since initialization:          600.00    seconds
c maximum resident set size of process:          701.11    MB
c 
c --- [ shutting down ] ------------------------------------------------------
c 
c exit 0
